%nprocshared=16
%mem=16GB

--Link1--
%chk=b3lyp_631g.chk
#p B3LYP/6-31G(d) opt freq

B3LYP / 6-31G(d)

0 1
C 0.000000 0.000000 0.000000
H 0.000000 0.000000 1.090000
H 1.026719 0.000000 -0.363333
H -0.513360 -0.889165 -0.363333
H -0.513360 0.889165 -0.363333

--Link1--
%chk=pbe0_def2svp.chk
#p PBE1PBE/Def2SVP opt freq

PBE0 / Def2SVP

0 1
C 0.000000 0.000000 0.000000
H 0.000000 0.000000 1.090000
H 1.026719 0.000000 -0.363333
H -0.513360 -0.889165 -0.363333
H -0.513360 0.889165 -0.363333

--Link1--
%chk=m062x_def2tzvp.chk
#p M06-2X/Def2TZVP opt freq

M06-2X / Def2TZVP

0 1
C 0.000000 0.000000 0.000000
H 0.000000 0.000000 1.090000
H 1.026719 0.000000 -0.363333
H -0.513360 -0.889165 -0.363333
H -0.513360 0.889165 -0.363333

